exemplos-tarefas/3.lp
min: 100x41 + 100x42 + 100x43 + 100x44 + 100x45 + 50x51 + 50x52 + 50x53 + 50x54 + 50x55;

x11 + x21 + x31 + x41 + x51 = 10;
x12 + x22 + x32 + x42 + x52 = 20;
x13 + x23 + x33 + x43 + x53 = 30;
x14 + x24 + x34 + x44 + x54 = 40;
x15 + x25 + x35 + x45 + x55 = 50;

x11 + x12 + x13 + x14 + x15 <= 40;
x21 + x22 + x23 + x24 + x25 <= 40;
x31 + x32 + x33 + x34 + x35 <= 40;
x41 + x42 + x43 + x44 + x45 <= 50;
x51 + x52 + x53 + x54 + x55 <= 10;

x35 = 0;
x52 = 0;
x53 = 0;
x54 = 0;
x55 = 0;

