3.in
5 5
10
20
30
40
50
0 40
0 40
0 40
100 50
50 10
5
1
2
3
4
5
5
1
2
3
4
5
4
1
2
3
4
5
1
2
3
4
5
1
1
